WARNING: for repeatability, setting FPU to use double precision
============================[ Problem Statistics ]=============================
|                                                                             |
|  Number of variables:            50                                         |
|  Number of clauses:             218                                         |
|  Parse time:                   0.00 s                                       |
|                                                                             |
============================[ Search Statistics ]==============================
| Conflicts |          ORIGINAL         |          LEARNT          | Progress |
|           |    Vars  Clauses Literals |    Limit  Clauses Lit/Cl |          |
===============================================================================
===============================================================================
restarts              : 1
conflicts             : 77             (50960 /sec)
decisions             : 83             (0.00 % random) (54931 /sec)
propagations          : 1048           (693580 /sec)
conflict literals     : 256            (14.95 % deleted)
Memory used           : 20.00 MB
CPU time              : 0.001511 s

UNSATISFIABLE
